NAME : eil76.1093.tour
COMMENT : Cost = 126_1093
COMMENT : Found by LKH [Keld Helsgaun] Thu Nov 16 17:33:44 2017
TYPE : TOUR
DIMENSION : 95
TOUR_SECTION
1
43
77
33
78
62
79
63
80
22
81
41
82
42
83
23
84
28
85
16
86
76
67
7
59
75
90
40
72
10
31
39
9
32
44
3
94
30
29
13
57
15
5
48
74
89
56
88
6
26
53
11
66
65
38
58
12
17
51
91
64
92
50
25
55
18
24
49
93
68
4
34
46
8
35
14
19
54
52
27
45
2
87
21
47
36
37
20
70
60
71
69
61
95
73
-1
EOF
